c Result of efficient AIG-to-CNF conversion using package CNF
p cnf 98 147
2 8 -16 0
2 -3 -16 0
2 9 -16 0
-2 16 0
-2 3 -8 -9 0
-3 67 68 4 5 0
3 -67 0
3 -5 0
3 -4 0
3 -68 0
-4 76 77 78 79 0
4 -79 0
4 -78 0
4 -76 0
4 -77 0
-5 69 70 6 7 0
5 -69 0
5 -7 0
5 -6 0
5 -70 0
-6 73 74 75 0
6 -73 0
6 -75 0
6 -74 0
-7 71 72 0
7 -71 0
7 -72 0
8 -66 95 96 97 0
-8 -97 0
-8 -96 0
-8 66 0
-8 -95 0
9 -34 94 10 11 0
-9 -11 0
-9 34 0
-9 -10 0
-9 -94 0
-10 82 83 84 85 0
10 -85 0
10 -84 0
10 -82 0
10 -83 0
-11 12 13 14 15 0
11 -15 0
11 -12 0
11 -14 0
11 -13 0
-12 86 87 0
12 -86 0
12 -87 0
-13 80 81 0
13 -80 0
13 -81 0
-14 90 91 92 93 0
14 -93 0
14 -92 0
14 -90 0
14 -91 0
-15 88 89 0
15 -88 0
15 -89 0
16 -94 -17 -29 0
16 94 -23 -29 0
-16 29 0
-16 -94 17 0
-16 94 23 0
17 95 -18 0
17 -95 -21 22 0
-17 -95 21 0
-17 95 18 0
-17 -95 -22 0
18 96 -19 0
18 -96 -20 0
-18 -96 20 0
-18 96 19 0
19 -52 -97 0
19 -50 97 0
-19 50 97 0
-19 52 -97 0
20 -56 -97 0
20 -54 97 0
-20 54 97 0
-20 56 -97 0
-21 60 96 -97 0
-21 58 96 97 0
21 -96 0
21 -58 97 0
21 -60 -97 0
22 64 -96 -97 0
22 62 -96 97 0
-22 96 0
-22 -62 97 0
-22 -64 -97 0
23 95 -24 0
23 -95 27 -28 0
-23 -95 -27 0
-23 95 24 0
-23 -95 28 0
24 -96 -25 0
24 96 -26 0
-24 96 26 0
-24 -96 25 0
25 -40 -97 0
25 -38 97 0
-25 38 97 0
-25 40 -97 0
26 -36 -97 0
26 -34 97 0
-26 34 97 0
-26 36 -97 0
27 48 -96 -97 0
27 46 -96 97 0
-27 96 0
-27 -46 97 0
-27 -48 -97 0
-28 44 96 -97 0
-28 42 96 97 0
28 -96 0
28 -42 97 0
28 -44 -97 0
29 10 -30 32 33 0
-29 -33 0
-29 -10 0
-29 -32 0
-29 30 0
30 -66 12 15 31 0
-30 -31 0
-30 66 0
-30 -15 0
-30 -12 0
-31 74 75 4 13 0
31 -74 0
31 -13 0
31 -4 0
31 -75 0
-32 70 71 72 73 0
32 -73 0
32 -72 0
32 -70 0
32 -71 0
-33 67 68 69 14 0
33 -14 0
33 -69 0
33 -67 0
33 -68 0
-98 0
2 0

